(declare-const p15 Real)
(declare-const p10 Real)
(declare-const p12 Real)
(declare-const sin Real)
(declare-const p14 Real)
(declare-const p13 Real)
(declare-const fee_bl Real)
(declare-const income Real)
(declare-const special Real)
(declare-const p8 Real)
(assert (= p8 (* 0.08 (ite (> income 60000) 60000 income))))
(assert (= p10 (ite (> income 60000) (* 0.10 (- (ite (> income 151234) 151234 income) 60000)) 0)))
(assert (= p12 (ite (> income 151234) (* 0.12 (- (ite (> income 181481) 181481 income) 151234)) 0)))
(assert (= p13 (ite (> income 181481) (* 0.13 (- (ite (> income 241974) 241974 income) 181481)) 0)))
(assert (= p14 (ite (> income 241974) (* 0.14 (- (ite (> income 362961) 362961 income) 241974)) 0)))
(assert (= p15 (ite (> income 362961) (* 0.15 (- income 362961)) 0)))
(assert (= special (ite (>= sin 900000000) 0 1)))
(assert (= fee_bl (* special (+ (+ (+ (+ (+ p8 p10) p12) p13) p14) p15))))